certificates/rado_a11_c257_N30.cnf
c Rad2 upper bound instance: x1 + 11*x2 - x3 = 257, interval [1,30]
p cnf 30 162
1 8 24 0
-1 -8 -24 0
1 19 25 0
-1 -19 -25 0
1 26 30 0
-1 -26 -30 0
2 9 24 0
-2 -9 -24 0
2 20 25 0
-2 -20 -25 0
3 10 24 0
-3 -10 -24 0
3 21 25 0
-3 -21 -25 0
4 11 24 0
-4 -11 -24 0
4 22 25 0
-4 -22 -25 0
1 5 23 0
-1 -5 -23 0
5 12 24 0
-5 -12 -24 0
5 23 25 0
-5 -23 -25 0
2 6 23 0
-2 -6 -23 0
6 13 24 0
-6 -13 -24 0
6 24 25 0
-6 -24 -25 0
3 7 23 0
-3 -7 -23 0
7 14 24 0
-7 -14 -24 0
7 25 0
-7 -25 0
4 8 23 0
-4 -8 -23 0
8 15 24 0
-8 -15 -24 0
8 25 26 0
-8 -25 -26 0
5 9 23 0
-5 -9 -23 0
9 16 24 0
-9 -16 -24 0
9 25 27 0
-9 -25 -27 0
6 10 23 0
-6 -10 -23 0
10 17 24 0
-10 -17 -24 0
10 25 28 0
-10 -25 -28 0
7 11 23 0
-7 -11 -23 0
11 18 24 0
-11 -18 -24 0
11 25 29 0
-11 -25 -29 0
8 12 23 0
-8 -12 -23 0
12 19 24 0
-12 -19 -24 0
12 25 30 0
-12 -25 -30 0
9 13 23 0
-9 -13 -23 0
13 20 24 0
-13 -20 -24 0
10 14 23 0
-10 -14 -23 0
14 21 24 0
-14 -21 -24 0
11 15 23 0
-11 -15 -23 0
15 22 24 0
-15 -22 -24 0
1 16 22 0
-1 -16 -22 0
12 16 23 0
-12 -16 -23 0
16 23 24 0
-16 -23 -24 0
2 17 22 0
-2 -17 -22 0
13 17 23 0
-13 -17 -23 0
17 24 0
-17 -24 0
3 18 22 0
-3 -18 -22 0
14 18 23 0
-14 -18 -23 0
18 24 25 0
-18 -24 -25 0
4 19 22 0
-4 -19 -22 0
15 19 23 0
-15 -19 -23 0
19 24 26 0
-19 -24 -26 0
5 20 22 0
-5 -20 -22 0
16 20 23 0
-16 -20 -23 0
20 24 27 0
-20 -24 -27 0
6 21 22 0
-6 -21 -22 0
17 21 23 0
-17 -21 -23 0
21 24 28 0
-21 -24 -28 0
7 22 0
-7 -22 0
18 22 23 0
-18 -22 -23 0
22 24 29 0
-22 -24 -29 0
8 22 23 0
-8 -22 -23 0
19 23 0
-19 -23 0
23 24 30 0
-23 -24 -30 0
9 22 24 0
-9 -22 -24 0
20 23 24 0
-20 -23 -24 0
10 22 25 0
-10 -22 -25 0
21 23 25 0
-21 -23 -25 0
11 22 26 0
-11 -22 -26 0
22 23 26 0
-22 -23 -26 0
1 21 27 0
-1 -21 -27 0
12 22 27 0
-12 -22 -27 0
23 27 0
-23 -27 0
2 21 28 0
-2 -21 -28 0
13 22 28 0
-13 -22 -28 0
23 24 28 0
-23 -24 -28 0
3 21 29 0
-3 -21 -29 0
14 22 29 0
-14 -22 -29 0
23 25 29 0
-23 -25 -29 0
4 21 30 0
-4 -21 -30 0
15 22 30 0
-15 -22 -30 0
23 26 30 0
-23 -26 -30 0
