certificates/rado_a11_c257_N30.drat
-26 23 -30 0
-22 -29 0
22 -30 0
-23 -30 0
-30 0
23 0
-19 0
-27 0
-25 -22 0
d -4 -25 -22 0
12 0
-8 0
-22 0
-16 0
7 0
15 0
4 0
1 0
-25 0
-3 0
-11 0
-5 0
10 0
9 0
26 0
18 0
21 0
29 0
20 0
-6 0
-14 0
-13 0
-17 0
-24 0
0
